c File: flat100_3_0.col
c
c SOURCE: Joseph Culberson (joe@cs.ualberta.ca)
c DESCRIPTION: Quasi-random coloring problem
c              generated with flatness = 0
c                             probability = 0.072
c                             known coloring = 3
c                             random seed = 1048
c              Creation Date:  Thu Jun  4 18:55:50 1998
c Maximum degree = 8 Minimum degree = 1
c p edge 100 239
c cnf created by edge2cnf
p cnf 300 1117
-1 -2 0
-1 -3 0
-2 -3 0
1 2 3 0
-4 -5 0
-4 -6 0
-5 -6 0
4 5 6 0
-7 -8 0
-7 -9 0
-8 -9 0
7 8 9 0
-10 -11 0
-10 -12 0
-11 -12 0
10 11 12 0
-13 -14 0
-13 -15 0
-14 -15 0
13 14 15 0
-16 -17 0
-16 -18 0
-17 -18 0
16 17 18 0
-19 -20 0
-19 -21 0
-20 -21 0
19 20 21 0
-22 -23 0
-22 -24 0
-23 -24 0
22 23 24 0
-25 -26 0
-25 -27 0
-26 -27 0
25 26 27 0
-28 -29 0
-28 -30 0
-29 -30 0
28 29 30 0
-31 -32 0
-31 -33 0
-32 -33 0
31 32 33 0
-34 -35 0
-34 -36 0
-35 -36 0
34 35 36 0
-37 -38 0
-37 -39 0
-38 -39 0
37 38 39 0
-40 -41 0
-40 -42 0
-41 -42 0
40 41 42 0
-43 -44 0
-43 -45 0
-44 -45 0
43 44 45 0
-46 -47 0
-46 -48 0
-47 -48 0
46 47 48 0
-49 -50 0
-49 -51 0
-50 -51 0
49 50 51 0
-52 -53 0
-52 -54 0
-53 -54 0
52 53 54 0
-55 -56 0
-55 -57 0
-56 -57 0
55 56 57 0
-58 -59 0
-58 -60 0
-59 -60 0
58 59 60 0
-61 -62 0
-61 -63 0
-62 -63 0
61 62 63 0
-64 -65 0
-64 -66 0
-65 -66 0
64 65 66 0
-67 -68 0
-67 -69 0
-68 -69 0
67 68 69 0
-70 -71 0
-70 -72 0
-71 -72 0
70 71 72 0
-73 -74 0
-73 -75 0
-74 -75 0
73 74 75 0
-76 -77 0
-76 -78 0
-77 -78 0
76 77 78 0
-79 -80 0
-79 -81 0
-80 -81 0
79 80 81 0
-82 -83 0
-82 -84 0
-83 -84 0
82 83 84 0
-85 -86 0
-85 -87 0
-86 -87 0
85 86 87 0
-88 -89 0
-88 -90 0
-89 -90 0
88 89 90 0
-91 -92 0
-91 -93 0
-92 -93 0
91 92 93 0
-94 -95 0
-94 -96 0
-95 -96 0
94 95 96 0
-97 -98 0
-97 -99 0
-98 -99 0
97 98 99 0
-100 -101 0
-100 -102 0
-101 -102 0
100 101 102 0
-103 -104 0
-103 -105 0
-104 -105 0
103 104 105 0
-106 -107 0
-106 -108 0
-107 -108 0
106 107 108 0
-109 -110 0
-109 -111 0
-110 -111 0
109 110 111 0
-112 -113 0
-112 -114 0
-113 -114 0
112 113 114 0
-115 -116 0
-115 -117 0
-116 -117 0
115 116 117 0
-118 -119 0
-118 -120 0
-119 -120 0
118 119 120 0
-121 -122 0
-121 -123 0
-122 -123 0
121 122 123 0
-124 -125 0
-124 -126 0
-125 -126 0
124 125 126 0
-127 -128 0
-127 -129 0
-128 -129 0
127 128 129 0
-130 -131 0
-130 -132 0
-131 -132 0
130 131 132 0
-133 -134 0
-133 -135 0
-134 -135 0
133 134 135 0
-136 -137 0
-136 -138 0
-137 -138 0
136 137 138 0
-139 -140 0
-139 -141 0
-140 -141 0
139 140 141 0
-142 -143 0
-142 -144 0
-143 -144 0
142 143 144 0
-145 -146 0
-145 -147 0
-146 -147 0
145 146 147 0
-148 -149 0
-148 -150 0
-149 -150 0
148 149 150 0
-151 -152 0
-151 -153 0
-152 -153 0
151 152 153 0
-154 -155 0
-154 -156 0
-155 -156 0
154 155 156 0
-157 -158 0
-157 -159 0
-158 -159 0
157 158 159 0
-160 -161 0
-160 -162 0
-161 -162 0
160 161 162 0
-163 -164 0
-163 -165 0
-164 -165 0
163 164 165 0
-166 -167 0
-166 -168 0
-167 -168 0
166 167 168 0
-169 -170 0
-169 -171 0
-170 -171 0
169 170 171 0
-172 -173 0
-172 -174 0
-173 -174 0
172 173 174 0
-175 -176 0
-175 -177 0
-176 -177 0
175 176 177 0
-178 -179 0
-178 -180 0
-179 -180 0
178 179 180 0
-181 -182 0
-181 -183 0
-182 -183 0
181 182 183 0
-184 -185 0
-184 -186 0
-185 -186 0
184 185 186 0
-187 -188 0
-187 -189 0
-188 -189 0
187 188 189 0
-190 -191 0
-190 -192 0
-191 -192 0
190 191 192 0
-193 -194 0
-193 -195 0
-194 -195 0
193 194 195 0
-196 -197 0
-196 -198 0
-197 -198 0
196 197 198 0
-199 -200 0
-199 -201 0
-200 -201 0
199 200 201 0
-202 -203 0
-202 -204 0
-203 -204 0
202 203 204 0
-205 -206 0
-205 -207 0
-206 -207 0
205 206 207 0
-208 -209 0
-208 -210 0
-209 -210 0
208 209 210 0
-211 -212 0
-211 -213 0
-212 -213 0
211 212 213 0
-214 -215 0
-214 -216 0
-215 -216 0
214 215 216 0
-217 -218 0
-217 -219 0
-218 -219 0
217 218 219 0
-220 -221 0
-220 -222 0
-221 -222 0
220 221 222 0
-223 -224 0
-223 -225 0
-224 -225 0
223 224 225 0
-226 -227 0
-226 -228 0
-227 -228 0
226 227 228 0
-229 -230 0
-229 -231 0
-230 -231 0
229 230 231 0
-232 -233 0
-232 -234 0
-233 -234 0
232 233 234 0
-235 -236 0
-235 -237 0
-236 -237 0
235 236 237 0
-238 -239 0
-238 -240 0
-239 -240 0
238 239 240 0
-241 -242 0
-241 -243 0
-242 -243 0
241 242 243 0
-244 -245 0
-244 -246 0
-245 -246 0
244 245 246 0
-247 -248 0
-247 -249 0
-248 -249 0
247 248 249 0
-250 -251 0
-250 -252 0
-251 -252 0
250 251 252 0
-253 -254 0
-253 -255 0
-254 -255 0
253 254 255 0
-256 -257 0
-256 -258 0
-257 -258 0
256 257 258 0
-259 -260 0
-259 -261 0
-260 -261 0
259 260 261 0
-262 -263 0
-262 -264 0
-263 -264 0
262 263 264 0
-265 -266 0
-265 -267 0
-266 -267 0
265 266 267 0
-268 -269 0
-268 -270 0
-269 -270 0
268 269 270 0
-271 -272 0
-271 -273 0
-272 -273 0
271 272 273 0
-274 -275 0
-274 -276 0
-275 -276 0
274 275 276 0
-277 -278 0
-277 -279 0
-278 -279 0
277 278 279 0
-280 -281 0
-280 -282 0
-281 -282 0
280 281 282 0
-283 -284 0
-283 -285 0
-284 -285 0
283 284 285 0
-286 -287 0
-286 -288 0
-287 -288 0
286 287 288 0
-289 -290 0
-289 -291 0
-290 -291 0
289 290 291 0
-292 -293 0
-292 -294 0
-293 -294 0
292 293 294 0
-295 -296 0
-295 -297 0
-296 -297 0
295 296 297 0
-298 -299 0
-298 -300 0
-299 -300 0
298 299 300 0
-190 -1 0
-191 -2 0
-192 -3 0
-205 -1 0
-206 -2 0
-207 -3 0
-211 -1 0
-212 -2 0
-213 -3 0
-253 -1 0
-254 -2 0
-255 -3 0
-280 -1 0
-281 -2 0
-282 -3 0
-118 -4 0
-119 -5 0
-120 -6 0
-220 -4 0
-221 -5 0
-222 -6 0
-223 -4 0
-224 -5 0
-225 -6 0
-253 -4 0
-254 -5 0
-255 -6 0
-268 -4 0
-269 -5 0
-270 -6 0
-106 -7 0
-107 -8 0
-108 -9 0
-130 -7 0
-131 -8 0
-132 -9 0
-181 -7 0
-182 -8 0
-183 -9 0
-193 -7 0
-194 -8 0
-195 -9 0
-232 -7 0
-233 -8 0
-234 -9 0
-283 -7 0
-284 -8 0
-285 -9 0
-286 -7 0
-287 -8 0
-288 -9 0
-121 -10 0
-122 -11 0
-123 -12 0
-127 -10 0
-128 -11 0
-129 -12 0
-145 -10 0
-146 -11 0
-147 -12 0
-169 -10 0
-170 -11 0
-171 -12 0
-235 -10 0
-236 -11 0
-237 -12 0
-106 -13 0
-107 -14 0
-108 -15 0
-121 -13 0
-122 -14 0
-123 -15 0
-154 -13 0
-155 -14 0
-156 -15 0
-169 -13 0
-170 -14 0
-171 -15 0
-253 -13 0
-254 -14 0
-255 -15 0
-256 -13 0
-257 -14 0
-258 -15 0
-112 -16 0
-113 -17 0
-114 -18 0
-166 -16 0
-167 -17 0
-168 -18 0
-190 -16 0
-191 -17 0
-192 -18 0
-262 -16 0
-263 -17 0
-264 -18 0
-112 -19 0
-113 -20 0
-114 -21 0
-142 -19 0
-143 -20 0
-144 -21 0
-184 -19 0
-185 -20 0
-186 -21 0
-190 -19 0
-191 -20 0
-192 -21 0
-292 -19 0
-293 -20 0
-294 -21 0
-151 -22 0
-152 -23 0
-153 -24 0
-157 -22 0
-158 -23 0
-159 -24 0
-217 -22 0
-218 -23 0
-219 -24 0
-223 -22 0
-224 -23 0
-225 -24 0
-226 -22 0
-227 -23 0
-228 -24 0
-259 -22 0
-260 -23 0
-261 -24 0
-103 -25 0
-104 -26 0
-105 -27 0
-160 -25 0
-161 -26 0
-162 -27 0
-235 -25 0
-236 -26 0
-237 -27 0
-247 -25 0
-248 -26 0
-249 -27 0
-259 -25 0
-260 -26 0
-261 -27 0
-286 -25 0
-287 -26 0
-288 -27 0
-139 -28 0
-140 -29 0
-141 -30 0
-142 -28 0
-143 -29 0
-144 -30 0
-220 -28 0
-221 -29 0
-222 -30 0
-223 -28 0
-224 -29 0
-225 -30 0
-265 -28 0
-266 -29 0
-267 -30 0
-163 -31 0
-164 -32 0
-165 -33 0
-232 -31 0
-233 -32 0
-234 -33 0
-262 -31 0
-263 -32 0
-264 -33 0
-289 -31 0
-290 -32 0
-291 -33 0
-157 -34 0
-158 -35 0
-159 -36 0
-166 -34 0
-167 -35 0
-168 -36 0
-244 -34 0
-245 -35 0
-246 -36 0
-265 -34 0
-266 -35 0
-267 -36 0
-157 -37 0
-158 -38 0
-159 -39 0
-193 -37 0
-194 -38 0
-195 -39 0
-256 -37 0
-257 -38 0
-258 -39 0
-268 -37 0
-269 -38 0
-270 -39 0
-190 -40 0
-191 -41 0
-192 -42 0
-196 -40 0
-197 -41 0
-198 -42 0
-166 -43 0
-167 -44 0
-168 -45 0
-223 -43 0
-224 -44 0
-225 -45 0
-247 -43 0
-248 -44 0
-249 -45 0
-259 -43 0
-260 -44 0
-261 -45 0
-139 -46 0
-140 -47 0
-141 -48 0
-124 -49 0
-125 -50 0
-126 -51 0
-136 -49 0
-137 -50 0
-138 -51 0
-148 -49 0
-149 -50 0
-150 -51 0
-163 -49 0
-164 -50 0
-165 -51 0
-244 -49 0
-245 -50 0
-246 -51 0
-145 -52 0
-146 -53 0
-147 -54 0
-148 -52 0
-149 -53 0
-150 -54 0
-169 -52 0
-170 -53 0
-171 -54 0
-193 -52 0
-194 -53 0
-195 -54 0
-265 -52 0
-266 -53 0
-267 -54 0
-115 -55 0
-116 -56 0
-117 -57 0
-130 -55 0
-131 -56 0
-132 -57 0
-196 -55 0
-197 -56 0
-198 -57 0
-283 -55 0
-284 -56 0
-285 -57 0
-109 -58 0
-110 -59 0
-111 -60 0
-241 -58 0
-242 -59 0
-243 -60 0
-295 -58 0
-296 -59 0
-297 -60 0
-184 -61 0
-185 -62 0
-186 -63 0
-229 -61 0
-230 -62 0
-231 -63 0
-241 -61 0
-242 -62 0
-243 -63 0
-277 -61 0
-278 -62 0
-279 -63 0
-169 -64 0
-170 -65 0
-171 -66 0
-178 -64 0
-179 -65 0
-180 -66 0
-187 -64 0
-188 -65 0
-189 -66 0
-193 -64 0
-194 -65 0
-195 -66 0
-238 -64 0
-239 -65 0
-240 -66 0
-175 -67 0
-176 -68 0
-177 -69 0
-199 -67 0
-200 -68 0
-201 -69 0
-148 -70 0
-149 -71 0
-150 -72 0
-184 -70 0
-185 -71 0
-186 -72 0
-217 -70 0
-218 -71 0
-219 -72 0
-244 -70 0
-245 -71 0
-246 -72 0
-247 -70 0
-248 -71 0
-249 -72 0
-280 -70 0
-281 -71 0
-282 -72 0
-103 -73 0
-104 -74 0
-105 -75 0
-133 -73 0
-134 -74 0
-135 -75 0
-139 -73 0
-140 -74 0
-141 -75 0
-142 -73 0
-143 -74 0
-144 -75 0
-250 -73 0
-251 -74 0
-252 -75 0
-259 -73 0
-260 -74 0
-261 -75 0
-124 -76 0
-125 -77 0
-126 -78 0
-133 -76 0
-134 -77 0
-135 -78 0
-211 -76 0
-212 -77 0
-213 -78 0
-241 -76 0
-242 -77 0
-243 -78 0
-283 -76 0
-284 -77 0
-285 -78 0
-298 -76 0
-299 -77 0
-300 -78 0
-175 -79 0
-176 -80 0
-177 -81 0
-199 -79 0
-200 -80 0
-201 -81 0
-208 -79 0
-209 -80 0
-210 -81 0
-229 -79 0
-230 -80 0
-231 -81 0
-238 -79 0
-239 -80 0
-240 -81 0
-265 -79 0
-266 -80 0
-267 -81 0
-124 -82 0
-125 -83 0
-126 -84 0
-163 -82 0
-164 -83 0
-165 -84 0
-181 -82 0
-182 -83 0
-183 -84 0
-226 -82 0
-227 -83 0
-228 -84 0
-244 -82 0
-245 -83 0
-246 -84 0
-139 -85 0
-140 -86 0
-141 -87 0
-202 -85 0
-203 -86 0
-204 -87 0
-280 -85 0
-281 -86 0
-282 -87 0
-106 -88 0
-107 -89 0
-108 -90 0
-208 -88 0
-209 -89 0
-210 -90 0
-277 -88 0
-278 -89 0
-279 -90 0
-283 -88 0
-284 -89 0
-285 -90 0
-286 -88 0
-287 -89 0
-288 -90 0
-166 -91 0
-167 -92 0
-168 -93 0
-217 -91 0
-218 -92 0
-219 -93 0
-274 -91 0
-275 -92 0
-276 -93 0
-292 -91 0
-293 -92 0
-294 -93 0
-295 -91 0
-296 -92 0
-297 -93 0
-163 -94 0
-164 -95 0
-165 -96 0
-199 -94 0
-200 -95 0
-201 -96 0
-205 -94 0
-206 -95 0
-207 -96 0
-241 -94 0
-242 -95 0
-243 -96 0
-250 -94 0
-251 -95 0
-252 -96 0
-274 -94 0
-275 -95 0
-276 -96 0
-115 -97 0
-116 -98 0
-117 -99 0
-175 -97 0
-176 -98 0
-177 -99 0
-187 -97 0
-188 -98 0
-189 -99 0
-205 -97 0
-206 -98 0
-207 -99 0
-211 -97 0
-212 -98 0
-213 -99 0
-280 -97 0
-281 -98 0
-282 -99 0
-289 -97 0
-290 -98 0
-291 -99 0
-109 -100 0
-110 -101 0
-111 -102 0
-142 -100 0
-143 -101 0
-144 -102 0
-172 -100 0
-173 -101 0
-174 -102 0
-178 -100 0
-179 -101 0
-180 -102 0
-256 -100 0
-257 -101 0
-258 -102 0
-250 -103 0
-251 -104 0
-252 -105 0
-205 -106 0
-206 -107 0
-207 -108 0
-214 -106 0
-215 -107 0
-216 -108 0
-262 -106 0
-263 -107 0
-264 -108 0
-247 -109 0
-248 -110 0
-249 -111 0
-289 -109 0
-290 -110 0
-291 -111 0
-295 -109 0
-296 -110 0
-297 -111 0
-202 -112 0
-203 -113 0
-204 -114 0
-256 -112 0
-257 -113 0
-258 -114 0
-259 -112 0
-260 -113 0
-261 -114 0
-286 -112 0
-287 -113 0
-288 -114 0
-247 -115 0
-248 -116 0
-249 -117 0
-262 -115 0
-263 -116 0
-264 -117 0
-268 -115 0
-269 -116 0
-270 -117 0
-208 -118 0
-209 -119 0
-210 -120 0
-241 -121 0
-242 -122 0
-243 -123 0
-256 -121 0
-257 -122 0
-258 -123 0
-277 -121 0
-278 -122 0
-279 -123 0
-286 -121 0
-287 -122 0
-288 -123 0
-214 -124 0
-215 -125 0
-216 -126 0
-274 -124 0
-275 -125 0
-276 -126 0
-271 -127 0
-272 -128 0
-273 -129 0
-298 -127 0
-299 -128 0
-300 -129 0
-244 -130 0
-245 -131 0
-246 -132 0
-271 -130 0
-272 -131 0
-273 -132 0
-241 -133 0
-242 -134 0
-243 -135 0
-247 -133 0
-248 -134 0
-249 -135 0
-265 -133 0
-266 -134 0
-267 -135 0
-274 -133 0
-275 -134 0
-276 -135 0
-244 -136 0
-245 -137 0
-246 -138 0
-280 -136 0
-281 -137 0
-282 -138 0
-283 -136 0
-284 -137 0
-285 -138 0
-238 -139 0
-239 -140 0
-240 -141 0
-241 -139 0
-242 -140 0
-243 -141 0
-250 -139 0
-251 -140 0
-252 -141 0
-232 -142 0
-233 -143 0
-234 -144 0
-214 -145 0
-215 -146 0
-216 -147 0
-244 -145 0
-245 -146 0
-246 -147 0
-265 -148 0
-266 -149 0
-267 -150 0
-292 -148 0
-293 -149 0
-294 -150 0
-295 -148 0
-296 -149 0
-297 -150 0
-205 -151 0
-206 -152 0
-207 -153 0
-235 -151 0
-236 -152 0
-237 -153 0
-283 -151 0
-284 -152 0
-285 -153 0
-277 -154 0
-278 -155 0
-279 -156 0
-268 -157 0
-269 -158 0
-270 -159 0
-292 -157 0
-293 -158 0
-294 -159 0
-289 -160 0
-290 -161 0
-291 -162 0
-232 -163 0
-233 -164 0
-234 -165 0
-256 -163 0
-257 -164 0
-258 -165 0
-286 -163 0
-287 -164 0
-288 -165 0
-295 -163 0
-296 -164 0
-297 -165 0
-235 -166 0
-236 -167 0
-237 -168 0
-262 -166 0
-263 -167 0
-264 -168 0
-268 -166 0
-269 -167 0
-270 -168 0
-274 -166 0
-275 -167 0
-276 -168 0
-205 -172 0
-206 -173 0
-207 -174 0
-226 -172 0
-227 -173 0
-228 -174 0
-217 -175 0
-218 -176 0
-219 -177 0
-223 -175 0
-224 -176 0
-225 -177 0
-238 -175 0
-239 -176 0
-240 -177 0
-250 -178 0
-251 -179 0
-252 -180 0
-220 -181 0
-221 -182 0
-222 -183 0
-247 -181 0
-248 -182 0
-249 -183 0
-259 -181 0
-260 -182 0
-261 -183 0
-292 -181 0
-293 -182 0
-294 -183 0
-238 -184 0
-239 -185 0
-240 -186 0
-253 -184 0
-254 -185 0
-255 -186 0
-256 -184 0
-257 -185 0
-258 -186 0
-226 -187 0
-227 -188 0
-228 -189 0
-253 -187 0
-254 -188 0
-255 -189 0
-280 -190 0
-281 -191 0
-282 -192 0
-226 -193 0
-227 -194 0
-228 -195 0
-265 -193 0
-266 -194 0
-267 -195 0
-211 -196 0
-212 -197 0
-213 -198 0
-232 -196 0
-233 -197 0
-234 -198 0
-286 -196 0
-287 -197 0
-288 -198 0
-211 -199 0
-212 -200 0
-213 -201 0
